25 9 39 
















































































23 19 6 
28 56 
72 31 
49 41 
68 5 
76 15 
65 70 67 
10 1 
58 13 66 
16 4 17 
44 27 34 
51 20 42 
37 50 
46 47 61 
59 38 21 
3 26 
18 55 
32 2 
52 24 
8 30 
35 60 
33 7 
29 62 
48 71 11 
75 0 
54 43 

74 69 
12 53 
36 22 
63 64 
40 45 57 
73 14 

